unsat
(:cnf-encoding-aux-vars   52
 :eliminated-applications 4
 :eliminated-vars         45
 :max-memory              18.44
 :memory                  18.15
 :nlsat-conflicts         32
 :nlsat-decisions         286
 :nlsat-propagations      321
 :num-allocs              83933
 :rlimit-count            36668
 :time                    0.01
 :total-time              0.01)
